5 6 69
4 5 1 3 1 3 2 3 3 4 20 20 41 41 57 57 65 
4 4 1 4 2 2 2 5 4 6 26 26 47 47 58 58 69 
5 2 1 1 1 1 2 1 3 2 3 18 34 34 43 43 52 52 60 60 68 
4 5 2 5 3 4 3 1 4 22 35 35 46 51 62 62 68 
7 5 1 2 1 2 1 5 4 5 4 2 3 1 4 0 4 4 10 10 18 44 46 46 56 58 60 60 62 
8 4 1 3 1 3 1 5 2 1 1 1 1 2 2 4 3 0 6 6 14 14 18 20 22 22 26 26 34 34 46 47 51 
